69 69
60 3
27 25
63 13
44 12
68 6
52 15
26 11
11 28
14 25
8 8
31 10
66 33
46 29
17 32
64 4
18 9
69 20
23 5
10 14
62 3
61 9
9 7
13 17
48 22
65 29
40 32
53 27
15 19
57 1
56 31
24 2
34 26
3 19
1 20
35 4
42 31
19 5
25 18
21 23
39 34
58 13
30 30
45 30
43 2
59 24
22 33
33 24
32 35
47 11
36 8
49 34
5 23
20 21
37 16
12 10
38 15
28 14
55 27
2 16
16 6
51 17
29 12
54 21
50 7
4 1
41 28
6 22
7 18
67 26
